c description: Random 3-CNF over 15 variables and 30 clauses
p cnf 15 30
2 -6 15 0
-9 -13 14 0
1 8 14 0
-3 9 12 0
-4 -6 -15 0
-2 3 8 0
1 -10 14 0
1 2 -3 0
-2 -6 11 0
-5 -6 7 0
-11 -13 -15 0
4 -9 -15 0
-2 -3 -12 0
5 -11 -12 0
-4 -7 8 0
-6 -8 -11 0
3 -8 13 0
-4 5 8 0
-1 -2 14 0
2 3 -8 0
-3 -10 -15 0
-1 6 -11 0
7 12 13 0
4 12 -15 0
-6 -10 -15 0
9 12 15 0
3 -11 12 0
8 -10 -15 0
1 -12 13 0
6 -13 15 0